\* Covid-19-Facility-Location-Problem *\
Minimize
OBJ: 2.5 Num_county_1_facility_1 + 40.0780488547 Num_county_1_facility_10
 + 43.7321392113 Num_county_1_facility_11
 + 38.1608438062 Num_county_1_facility_12
 + 38.8104367407 Num_county_1_facility_13
 + 45.0693909433 Num_county_1_facility_14
 + 3.53553390593 Num_county_1_facility_15 + 12.5 Num_county_1_facility_16
 + 23.0488611432 Num_county_1_facility_17
 + 10.307764064 Num_county_1_facility_18
 + 13.4629120178 Num_county_1_facility_19
 + 7.90569415042 Num_county_1_facility_2
 + 23.0488611432 Num_county_1_facility_20
 + 25.1246890528 Num_county_1_facility_21
 + 27.9508497187 Num_county_1_facility_22
 + 33.6340601177 Num_county_1_facility_23
 + 20.1556443707 Num_county_1_facility_3
 + 29.2617497768 Num_county_1_facility_4 + 17.5 Num_county_1_facility_5
 + 16.0078105936 Num_county_1_facility_6
 + 23.5849528301 Num_county_1_facility_7
 + 34.0036762718 Num_county_1_facility_8 + 35 Num_county_1_facility_9
 + 11.1803398875 Num_county_2_facility_1
 + 43.1566912541 Num_county_2_facility_10
 + 37.1651718683 Num_county_2_facility_11
 + 36.4005494464 Num_county_2_facility_12 + 40 Num_county_2_facility_13
 + 42.7200187266 Num_county_2_facility_14 + 7.5 Num_county_2_facility_15
 + 3.53553390593 Num_county_2_facility_16
 + 14.5773797371 Num_county_2_facility_17
 + 14.5773797371 Num_county_2_facility_18
 + 7.90569415042 Num_county_2_facility_19 + 2.5 Num_county_2_facility_2
 + 19.0394327647 Num_county_2_facility_20
 + 28.5043856275 Num_county_2_facility_21
 + 27.613402543 Num_county_2_facility_22
 + 30.207614934 Num_county_2_facility_23 + 10 Num_county_2_facility_3
 + 21.5058131676 Num_county_2_facility_4
 + 22.360679775 Num_county_2_facility_5 + 15 Num_county_2_facility_6
 + 18.0277563773 Num_county_2_facility_7
 + 28.5043856275 Num_county_2_facility_8
 + 38.8104367407 Num_county_2_facility_9
 + 22.6384628453 Num_county_3_facility_1
 + 44.72135955 Num_county_3_facility_10
 + 27.041634566 Num_county_3_facility_11
 + 32.596012026 Num_county_3_facility_12
 + 39.5284707521 Num_county_3_facility_13
 + 37.5832409459 Num_county_3_facility_14
 + 20.1556443707 Num_county_3_facility_15 + 10 Num_county_3_facility_16
 + 5 Num_county_3_facility_17 + 22.360679775 Num_county_3_facility_18
 + 11.1803398875 Num_county_3_facility_19
 + 15.2069063257 Num_county_3_facility_2
 + 15.8113883008 Num_county_3_facility_20
 + 32.0156211872 Num_county_3_facility_21
 + 26.9258240357 Num_county_3_facility_22 + 25 Num_county_3_facility_23
 + 3.53553390593 Num_county_3_facility_3
 + 11.1803398875 Num_county_3_facility_4
 + 28.5043856275 Num_county_3_facility_5
 + 17.6776695297 Num_county_3_facility_6
 + 12.747548784 Num_county_3_facility_7
 + 20.6155281281 Num_county_3_facility_8
 + 41.6082924427 Num_county_3_facility_9 + 12.5 Num_county_4_facility_1
 + 25.1246890528 Num_county_4_facility_10
 + 38.2426463519 Num_county_4_facility_11
 + 26.5753645318 Num_county_4_facility_12
 + 24.6221445045 Num_county_4_facility_13
 + 33.6340601177 Num_county_4_facility_14
 + 17.6776695297 Num_county_4_facility_15
 + 19.5256241898 Num_county_4_facility_16
 + 24.6221445045 Num_county_4_facility_17
 + 5.59016994375 Num_county_4_facility_18
 + 16.0078105936 Num_county_4_facility_19
 + 19.0394327647 Num_county_4_facility_2 + 17.5 Num_county_4_facility_20
 + 10.307764064 Num_county_4_facility_21
 + 16.0078105936 Num_county_4_facility_22
 + 24.6221445045 Num_county_4_facility_23
 + 26.5753645318 Num_county_4_facility_3
 + 27.9508497187 Num_county_4_facility_4 + 2.5 Num_county_4_facility_5
 + 10.307764064 Num_county_4_facility_6
 + 20.1556443707 Num_county_4_facility_7
 + 27.9508497187 Num_county_4_facility_8 + 20 Num_county_4_facility_9
 + 12.5 Num_county_5_facility_1 + 30.9232921921 Num_county_5_facility_10
 + 30.207614934 Num_county_5_facility_11
 + 24.6221445045 Num_county_5_facility_12 + 27.5 Num_county_5_facility_13
 + 31.3249102154 Num_county_5_facility_14
 + 14.5773797371 Num_county_5_facility_15
 + 10.307764064 Num_county_5_facility_16
 + 13.4629120178 Num_county_5_facility_17 + 7.5 Num_county_5_facility_18
 + 5.59016994375 Num_county_5_facility_19
 + 12.747548784 Num_county_5_facility_2
 + 9.01387818866 Num_county_5_facility_20
 + 16.7705098312 Num_county_5_facility_21
 + 15.2069063257 Num_county_5_facility_22
 + 19.5256241898 Num_county_5_facility_23
 + 16.0078105936 Num_county_5_facility_3 + 17.5 Num_county_5_facility_4
 + 12.5 Num_county_5_facility_5 + 2.5 Num_county_5_facility_6
 + 10.307764064 Num_county_5_facility_7
 + 20.1556443707 Num_county_5_facility_8
 + 26.9258240357 Num_county_5_facility_9
 + 25.7390753525 Num_county_6_facility_1
 + 32.0156211872 Num_county_6_facility_10
 + 16.7705098312 Num_county_6_facility_11
 + 17.6776695297 Num_county_6_facility_12
 + 25.7390753525 Num_county_6_facility_13
 + 22.6384628453 Num_county_6_facility_14
 + 26.5753645318 Num_county_6_facility_15
 + 18.0277563773 Num_county_6_facility_16 + 10 Num_county_6_facility_17
 + 20.6155281281 Num_county_6_facility_18
 + 14.1421356237 Num_county_6_facility_19
 + 23.0488611432 Num_county_6_facility_2 + 5 Num_county_6_facility_20
 + 22.360679775 Num_county_6_facility_21
 + 14.1421356237 Num_county_6_facility_22 + 10 Num_county_6_facility_23
 + 17.6776695297 Num_county_6_facility_3
 + 7.07106781187 Num_county_6_facility_4
 + 22.6384628453 Num_county_6_facility_5
 + 12.747548784 Num_county_6_facility_6
 + 3.53553390593 Num_county_6_facility_7
 + 7.07106781187 Num_county_6_facility_8
 + 30.103986447 Num_county_6_facility_9 + 30 Num_county_7_facility_1
 + 7.90569415042 Num_county_7_facility_10
 + 38.8104367407 Num_county_7_facility_11 + 20 Num_county_7_facility_12
 + 11.1803398875 Num_county_7_facility_13
 + 25.495097568 Num_county_7_facility_14
 + 35.089172119 Num_county_7_facility_15
 + 34.820970693 Num_county_7_facility_16
 + 35.5316760089 Num_county_7_facility_17
 + 22.6384628453 Num_county_7_facility_18
 + 30.207614934 Num_county_7_facility_19
 + 35.7945526582 Num_county_7_facility_2
 + 24.7487373415 Num_county_7_facility_20
 + 7.90569415042 Num_county_7_facility_21
 + 14.5773797371 Num_county_7_facility_22
 + 23.7170824513 Num_county_7_facility_23
 + 40.3112887415 Num_county_7_facility_3
 + 35.5316760089 Num_county_7_facility_4 + 15 Num_county_7_facility_5
 + 22.360679775 Num_county_7_facility_6
 + 28.2842712475 Num_county_7_facility_7
 + 30.207614934 Num_county_7_facility_8 + 2.5 Num_county_7_facility_9
 + 22.360679775 Num_county_8_facility_1
 + 19.0394327647 Num_county_8_facility_10 + 27.5 Num_county_8_facility_11
 + 14.1421356237 Num_county_8_facility_12 + 15 Num_county_8_facility_13
 + 21.2132034356 Num_county_8_facility_14
 + 26.1007662723 Num_county_8_facility_15
 + 22.6384628453 Num_county_8_facility_16
 + 21.5058131676 Num_county_8_facility_17
 + 14.5773797371 Num_county_8_facility_18
 + 17.6776695297 Num_county_8_facility_19
 + 25.1246890528 Num_county_8_facility_2
 + 10.6066017178 Num_county_8_facility_20
 + 7.90569415042 Num_county_8_facility_21
 + 3.53553390593 Num_county_8_facility_22
 + 12.747548784 Num_county_8_facility_23
 + 26.9258240357 Num_county_8_facility_3
 + 21.5058131676 Num_county_8_facility_4
 + 11.1803398875 Num_county_8_facility_5 + 10 Num_county_8_facility_6
 + 14.1421356237 Num_county_8_facility_7
 + 17.6776695297 Num_county_8_facility_8
 + 16.0078105936 Num_county_8_facility_9
 + 34.7311099736 Num_county_9_facility_1
 + 16.7705098312 Num_county_9_facility_10
 + 22.360679775 Num_county_9_facility_11 + 2.5 Num_county_9_facility_12
 + 9.01387818866 Num_county_9_facility_13
 + 9.01387818866 Num_county_9_facility_14
 + 38.0788655293 Num_county_9_facility_15
 + 32.8823660949 Num_county_9_facility_16
 + 27.9508497187 Num_county_9_facility_17
 + 27.041634566 Num_county_9_facility_18
 + 27.9508497187 Num_county_9_facility_19
 + 36.4005494464 Num_county_9_facility_2 + 17.5 Num_county_9_facility_20
 + 16.7705098312 Num_county_9_facility_21
 + 9.01387818866 Num_county_9_facility_22
 + 9.01387818866 Num_county_9_facility_23
 + 35.089172119 Num_county_9_facility_3
 + 24.6221445045 Num_county_9_facility_4
 + 23.0488611432 Num_county_9_facility_5
 + 21.3600093633 Num_county_9_facility_6
 + 20.1556443707 Num_county_9_facility_7
 + 16.0078105936 Num_county_9_facility_8
 + 17.6776695297 Num_county_9_facility_9 + 1615590 Z_facility_15
 + 1615590 Z_facility_16 + 1615590 Z_facility_17 + 1615590 Z_facility_18
 + 1615590 Z_facility_19 + 1615590 Z_facility_20 + 1615590 Z_facility_21
 + 1615590 Z_facility_22 + 1615590 Z_facility_23
 + 500000 temporary_facility_15 + 500000 temporary_facility_16
 + 500000 temporary_facility_17 + 500000 temporary_facility_18
 + 500000 temporary_facility_19 + 500000 temporary_facility_20
 + 500000 temporary_facility_21 + 500000 temporary_facility_22
 + 500000 temporary_facility_23
Subject To
_C1: Num_county_1_facility_1 + Num_county_1_facility_10
 + Num_county_1_facility_11 + Num_county_1_facility_12
 + Num_county_1_facility_13 + Num_county_1_facility_14
 + Num_county_1_facility_15 + Num_county_1_facility_16
 + Num_county_1_facility_17 + Num_county_1_facility_18
 + Num_county_1_facility_19 + Num_county_1_facility_2
 + Num_county_1_facility_20 + Num_county_1_facility_21
 + Num_county_1_facility_22 + Num_county_1_facility_23
 + Num_county_1_facility_3 + Num_county_1_facility_4 + Num_county_1_facility_5
 + Num_county_1_facility_6 + Num_county_1_facility_7 + Num_county_1_facility_8
 + Num_county_1_facility_9 = 421.2
_C10: Num_county_1_facility_1 + Num_county_2_facility_1
 + Num_county_3_facility_1 + Num_county_4_facility_1 + Num_county_5_facility_1
 + Num_county_6_facility_1 + Num_county_7_facility_1 + Num_county_8_facility_1
 + Num_county_9_facility_1 <= 281
_C11: Num_county_1_facility_2 + Num_county_2_facility_2
 + Num_county_3_facility_2 + Num_county_4_facility_2 + Num_county_5_facility_2
 + Num_county_6_facility_2 + Num_county_7_facility_2 + Num_county_8_facility_2
 + Num_county_9_facility_2 <= 187
_C12: Num_county_1_facility_3 + Num_county_2_facility_3
 + Num_county_3_facility_3 + Num_county_4_facility_3 + Num_county_5_facility_3
 + Num_county_6_facility_3 + Num_county_7_facility_3 + Num_county_8_facility_3
 + Num_county_9_facility_3 <= 200
_C13: Num_county_1_facility_4 + Num_county_2_facility_4
 + Num_county_3_facility_4 + Num_county_4_facility_4 + Num_county_5_facility_4
 + Num_county_6_facility_4 + Num_county_7_facility_4 + Num_county_8_facility_4
 + Num_county_9_facility_4 <= 223
_C14: Num_county_1_facility_5 + Num_county_2_facility_5
 + Num_county_3_facility_5 + Num_county_4_facility_5 + Num_county_5_facility_5
 + Num_county_6_facility_5 + Num_county_7_facility_5 + Num_county_8_facility_5
 + Num_county_9_facility_5 <= 281
_C15: Num_county_1_facility_6 + Num_county_2_facility_6
 + Num_county_3_facility_6 + Num_county_4_facility_6 + Num_county_5_facility_6
 + Num_county_6_facility_6 + Num_county_7_facility_6 + Num_county_8_facility_6
 + Num_county_9_facility_6 <= 281
_C16: Num_county_1_facility_7 + Num_county_2_facility_7
 + Num_county_3_facility_7 + Num_county_4_facility_7 + Num_county_5_facility_7
 + Num_county_6_facility_7 + Num_county_7_facility_7 + Num_county_8_facility_7
 + Num_county_9_facility_7 <= 222
_C17: Num_county_1_facility_8 + Num_county_2_facility_8
 + Num_county_3_facility_8 + Num_county_4_facility_8 + Num_county_5_facility_8
 + Num_county_6_facility_8 + Num_county_7_facility_8 + Num_county_8_facility_8
 + Num_county_9_facility_8 <= 200
_C18: Num_county_1_facility_9 + Num_county_2_facility_9
 + Num_county_3_facility_9 + Num_county_4_facility_9 + Num_county_5_facility_9
 + Num_county_6_facility_9 + Num_county_7_facility_9 + Num_county_8_facility_9
 + Num_county_9_facility_9 <= 250
_C19: Num_county_1_facility_10 + Num_county_2_facility_10
 + Num_county_3_facility_10 + Num_county_4_facility_10
 + Num_county_5_facility_10 + Num_county_6_facility_10
 + Num_county_7_facility_10 + Num_county_8_facility_10
 + Num_county_9_facility_10 <= 125
_C2: Num_county_2_facility_1 + Num_county_2_facility_10
 + Num_county_2_facility_11 + Num_county_2_facility_12
 + Num_county_2_facility_13 + Num_county_2_facility_14
 + Num_county_2_facility_15 + Num_county_2_facility_16
 + Num_county_2_facility_17 + Num_county_2_facility_18
 + Num_county_2_facility_19 + Num_county_2_facility_2
 + Num_county_2_facility_20 + Num_county_2_facility_21
 + Num_county_2_facility_22 + Num_county_2_facility_23
 + Num_county_2_facility_3 + Num_county_2_facility_4 + Num_county_2_facility_5
 + Num_county_2_facility_6 + Num_county_2_facility_7 + Num_county_2_facility_8
 + Num_county_2_facility_9 = 276
_C20: Num_county_1_facility_11 + Num_county_2_facility_11
 + Num_county_3_facility_11 + Num_county_4_facility_11
 + Num_county_5_facility_11 + Num_county_6_facility_11
 + Num_county_7_facility_11 + Num_county_8_facility_11
 + Num_county_9_facility_11 <= 187
_C21: Num_county_1_facility_12 + Num_county_2_facility_12
 + Num_county_3_facility_12 + Num_county_4_facility_12
 + Num_county_5_facility_12 + Num_county_6_facility_12
 + Num_county_7_facility_12 + Num_county_8_facility_12
 + Num_county_9_facility_12 <= 300
_C22: Num_county_1_facility_13 + Num_county_2_facility_13
 + Num_county_3_facility_13 + Num_county_4_facility_13
 + Num_county_5_facility_13 + Num_county_6_facility_13
 + Num_county_7_facility_13 + Num_county_8_facility_13
 + Num_county_9_facility_13 <= 300
_C23: Num_county_1_facility_14 + Num_county_2_facility_14
 + Num_county_3_facility_14 + Num_county_4_facility_14
 + Num_county_5_facility_14 + Num_county_6_facility_14
 + Num_county_7_facility_14 + Num_county_8_facility_14
 + Num_county_9_facility_14 <= 243
_C24: Num_county_1_facility_15 + Num_county_2_facility_15
 + Num_county_3_facility_15 + Num_county_4_facility_15
 + Num_county_5_facility_15 + Num_county_6_facility_15
 + Num_county_7_facility_15 + Num_county_8_facility_15
 + Num_county_9_facility_15 <= 100
_C25: Num_county_1_facility_15 + Num_county_2_facility_15
 + Num_county_3_facility_15 + Num_county_4_facility_15
 + Num_county_5_facility_15 + Num_county_6_facility_15
 + Num_county_7_facility_15 + Num_county_8_facility_15
 + Num_county_9_facility_15 - Z_facility_15 - 100 temporary_facility_15 <= 0
_C26: Num_county_1_facility_16 + Num_county_2_facility_16
 + Num_county_3_facility_16 + Num_county_4_facility_16
 + Num_county_5_facility_16 + Num_county_6_facility_16
 + Num_county_7_facility_16 + Num_county_8_facility_16
 + Num_county_9_facility_16 - Z_facility_16 - 100 temporary_facility_16 <= 0
_C27: Num_county_1_facility_17 + Num_county_2_facility_17
 + Num_county_3_facility_17 + Num_county_4_facility_17
 + Num_county_5_facility_17 + Num_county_6_facility_17
 + Num_county_7_facility_17 + Num_county_8_facility_17
 + Num_county_9_facility_17 - Z_facility_17 - 100 temporary_facility_17 <= 0
_C28: Num_county_1_facility_18 + Num_county_2_facility_18
 + Num_county_3_facility_18 + Num_county_4_facility_18
 + Num_county_5_facility_18 + Num_county_6_facility_18
 + Num_county_7_facility_18 + Num_county_8_facility_18
 + Num_county_9_facility_18 - Z_facility_18 - 100 temporary_facility_18 <= 0
_C29: Num_county_1_facility_19 + Num_county_2_facility_19
 + Num_county_3_facility_19 + Num_county_4_facility_19
 + Num_county_5_facility_19 + Num_county_6_facility_19
 + Num_county_7_facility_19 + Num_county_8_facility_19
 + Num_county_9_facility_19 - Z_facility_19 - 100 temporary_facility_19 <= 0
_C3: Num_county_3_facility_1 + Num_county_3_facility_10
 + Num_county_3_facility_11 + Num_county_3_facility_12
 + Num_county_3_facility_13 + Num_county_3_facility_14
 + Num_county_3_facility_15 + Num_county_3_facility_16
 + Num_county_3_facility_17 + Num_county_3_facility_18
 + Num_county_3_facility_19 + Num_county_3_facility_2
 + Num_county_3_facility_20 + Num_county_3_facility_21
 + Num_county_3_facility_22 + Num_county_3_facility_23
 + Num_county_3_facility_3 + Num_county_3_facility_4 + Num_county_3_facility_5
 + Num_county_3_facility_6 + Num_county_3_facility_7 + Num_county_3_facility_8
 + Num_county_3_facility_9 = 634.8
_C30: Num_county_1_facility_20 + Num_county_2_facility_20
 + Num_county_3_facility_20 + Num_county_4_facility_20
 + Num_county_5_facility_20 + Num_county_6_facility_20
 + Num_county_7_facility_20 + Num_county_8_facility_20
 + Num_county_9_facility_20 - Z_facility_20 - 100 temporary_facility_20 <= 0
_C31: Num_county_1_facility_21 + Num_county_2_facility_21
 + Num_county_3_facility_21 + Num_county_4_facility_21
 + Num_county_5_facility_21 + Num_county_6_facility_21
 + Num_county_7_facility_21 + Num_county_8_facility_21
 + Num_county_9_facility_21 - Z_facility_21 - 100 temporary_facility_21 <= 0
_C32: Num_county_1_facility_22 + Num_county_2_facility_22
 + Num_county_3_facility_22 + Num_county_4_facility_22
 + Num_county_5_facility_22 + Num_county_6_facility_22
 + Num_county_7_facility_22 + Num_county_8_facility_22
 + Num_county_9_facility_22 - Z_facility_22 - 100 temporary_facility_22 <= 0
_C33: Num_county_1_facility_23 + Num_county_2_facility_23
 + Num_county_3_facility_23 + Num_county_4_facility_23
 + Num_county_5_facility_23 + Num_county_6_facility_23
 + Num_county_7_facility_23 + Num_county_8_facility_23
 + Num_county_9_facility_23 - Z_facility_23 - 100 temporary_facility_23 <= 0
_C4: Num_county_4_facility_1 + Num_county_4_facility_10
 + Num_county_4_facility_11 + Num_county_4_facility_12
 + Num_county_4_facility_13 + Num_county_4_facility_14
 + Num_county_4_facility_15 + Num_county_4_facility_16
 + Num_county_4_facility_17 + Num_county_4_facility_18
 + Num_county_4_facility_19 + Num_county_4_facility_2
 + Num_county_4_facility_20 + Num_county_4_facility_21
 + Num_county_4_facility_22 + Num_county_4_facility_23
 + Num_county_4_facility_3 + Num_county_4_facility_4 + Num_county_4_facility_5
 + Num_county_4_facility_6 + Num_county_4_facility_7 + Num_county_4_facility_8
 + Num_county_4_facility_9 = 406.8
_C5: Num_county_5_facility_1 + Num_county_5_facility_10
 + Num_county_5_facility_11 + Num_county_5_facility_12
 + Num_county_5_facility_13 + Num_county_5_facility_14
 + Num_county_5_facility_15 + Num_county_5_facility_16
 + Num_county_5_facility_17 + Num_county_5_facility_18
 + Num_county_5_facility_19 + Num_county_5_facility_2
 + Num_county_5_facility_20 + Num_county_5_facility_21
 + Num_county_5_facility_22 + Num_county_5_facility_23
 + Num_county_5_facility_3 + Num_county_5_facility_4 + Num_county_5_facility_5
 + Num_county_5_facility_6 + Num_county_5_facility_7 + Num_county_5_facility_8
 + Num_county_5_facility_9 = 432
_C6: Num_county_6_facility_1 + Num_county_6_facility_10
 + Num_county_6_facility_11 + Num_county_6_facility_12
 + Num_county_6_facility_13 + Num_county_6_facility_14
 + Num_county_6_facility_15 + Num_county_6_facility_16
 + Num_county_6_facility_17 + Num_county_6_facility_18
 + Num_county_6_facility_19 + Num_county_6_facility_2
 + Num_county_6_facility_20 + Num_county_6_facility_21
 + Num_county_6_facility_22 + Num_county_6_facility_23
 + Num_county_6_facility_3 + Num_county_6_facility_4 + Num_county_6_facility_5
 + Num_county_6_facility_6 + Num_county_6_facility_7 + Num_county_6_facility_8
 + Num_county_6_facility_9 = 632.4
_C7: Num_county_7_facility_1 + Num_county_7_facility_10
 + Num_county_7_facility_11 + Num_county_7_facility_12
 + Num_county_7_facility_13 + Num_county_7_facility_14
 + Num_county_7_facility_15 + Num_county_7_facility_16
 + Num_county_7_facility_17 + Num_county_7_facility_18
 + Num_county_7_facility_19 + Num_county_7_facility_2
 + Num_county_7_facility_20 + Num_county_7_facility_21
 + Num_county_7_facility_22 + Num_county_7_facility_23
 + Num_county_7_facility_3 + Num_county_7_facility_4 + Num_county_7_facility_5
 + Num_county_7_facility_6 + Num_county_7_facility_7 + Num_county_7_facility_8
 + Num_county_7_facility_9 = 562.8
_C8: Num_county_8_facility_1 + Num_county_8_facility_10
 + Num_county_8_facility_11 + Num_county_8_facility_12
 + Num_county_8_facility_13 + Num_county_8_facility_14
 + Num_county_8_facility_15 + Num_county_8_facility_16
 + Num_county_8_facility_17 + Num_county_8_facility_18
 + Num_county_8_facility_19 + Num_county_8_facility_2
 + Num_county_8_facility_20 + Num_county_8_facility_21
 + Num_county_8_facility_22 + Num_county_8_facility_23
 + Num_county_8_facility_3 + Num_county_8_facility_4 + Num_county_8_facility_5
 + Num_county_8_facility_6 + Num_county_8_facility_7 + Num_county_8_facility_8
 + Num_county_8_facility_9 = 280.8
_C9: Num_county_9_facility_1 + Num_county_9_facility_10
 + Num_county_9_facility_11 + Num_county_9_facility_12
 + Num_county_9_facility_13 + Num_county_9_facility_14
 + Num_county_9_facility_15 + Num_county_9_facility_16
 + Num_county_9_facility_17 + Num_county_9_facility_18
 + Num_county_9_facility_19 + Num_county_9_facility_2
 + Num_county_9_facility_20 + Num_county_9_facility_21
 + Num_county_9_facility_22 + Num_county_9_facility_23
 + Num_county_9_facility_3 + Num_county_9_facility_4 + Num_county_9_facility_5
 + Num_county_9_facility_6 + Num_county_9_facility_7 + Num_county_9_facility_8
 + Num_county_9_facility_9 = 600
Binaries
temporary_facility_15
temporary_facility_16
temporary_facility_17
temporary_facility_18
temporary_facility_19
temporary_facility_20
temporary_facility_21
temporary_facility_22
temporary_facility_23
End
